
Log started (V20.1.0.0) Tue Aug  9 09:32:05 2022


Problem 'pp.lp' read.
Read time = 0.00 sec. (0.00 ticks)
Version identifier: 20.1.0.0 | 2020-11-10 | 9bedb6d68
Tried aggregator 1 time.
LP Presolve eliminated 0 rows and 4 columns.
Reduced LP has 3 rows, 2 columns, and 6 nonzeros.
Presolve time = 0.00 sec. (0.00 ticks)

Iteration log . . .
Iteration:     1   Dual infeasibility =             0.999999

Dual simplex - Optimal:  Objective = -2.2000000000e+01
Solution time =    0.00 sec.  Iterations = 2 (2)
Deterministic time = 0.01 ticks  (6.26 ticks/sec)


Variable Name           Solution Value
x1                           10.000000
x3                            8.000000
x6                            4.000000
All other variables matching '*' are 0.
